162 5
10 10 10 10 10 

0 0 0 0 0 0 1 2 
0 0 0 0 0 0 4 3 4 6 12 
6 4 0 0 0 0 4 10 9 8 7 
6 1 0 0 0 0 2 11 5 
7 8 0 0 0 0 2 8 7 
2 6 0 0 0 0 2 10 9 
8 8 0 0 0 0 1 13 
1 5 0 0 0 0 1 13 
5 3 0 0 0 0 1 13 
7 2 0 0 0 0 1 13 
4 3 0 0 0 0 1 13 
2 10 0 0 0 0 1 13 
0 0 0 0 0 0 1 14 
0 0 0 0 0 0 5 15 16 17 19 20 
2 0 1 0 0 0 2 24 18 
1 0 8 0 0 0 2 24 18 
7 0 5 0 0 0 4 24 23 22 21 
9 0 6 0 0 0 3 23 22 21 
7 0 6 0 0 0 3 23 22 21 
1 0 2 0 0 0 2 22 21 
4 0 6 0 0 0 1 25 
8 0 3 0 0 0 1 25 
6 0 6 0 0 0 1 25 
9 0 7 0 0 0 1 25 
0 0 0 0 0 0 1 26 
0 0 0 0 0 0 4 27 28 31 36 
6 0 0 0 0 1 3 35 30 29 
7 0 0 0 0 4 3 34 33 32 
8 0 0 0 0 4 2 33 32 
3 0 0 0 0 5 1 32 
6 0 0 0 0 5 1 32 
2 0 0 0 0 7 1 37 
9 0 0 0 0 5 1 37 
1 0 0 0 0 8 1 37 
2 0 0 0 0 7 1 37 
6 0 0 0 0 4 1 37 
0 0 0 0 0 0 5 38 60 82 94 116 
0 0 0 0 0 0 9 39 40 41 42 43 44 45 49 50 
7 0 1 1 0 0 5 58 57 52 48 46 
1 0 6 4 0 0 4 58 57 55 47 
8 0 5 8 0 0 4 57 56 52 48 
5 0 6 6 0 0 4 57 48 46 135 
10 0 6 4 0 0 3 52 48 46 
10 0 4 3 0 0 3 57 52 48 
2 0 8 9 0 0 4 56 54 53 52 
10 0 6 3 0 0 3 56 55 51 
1 0 8 7 0 0 2 56 48 
1 0 8 3 0 0 1 51 
9 0 3 3 0 0 1 51 
5 0 4 6 0 0 1 51 
4 0 5 5 0 0 2 54 53 
9 0 3 8 0 0 1 55 
3 0 5 4 0 0 1 59 
7 0 4 6 0 0 1 59 
10 0 4 4 0 0 1 59 
3 0 5 6 0 0 1 59 
7 0 4 2 0 0 1 59 
5 0 5 8 0 0 1 59 
0 0 0 0 0 0 1 162 
0 0 0 0 0 0 5 61 62 63 64 68 
5 0 1 1 0 0 4 74 71 69 65 
3 0 3 4 0 0 4 80 71 69 66 
1 0 3 7 0 0 5 80 79 74 69 67 
10 0 5 5 0 0 5 79 74 71 69 67 
5 0 6 5 0 0 3 80 79 67 
10 0 7 5 0 0 2 79 67 
5 0 6 3 0 0 4 77 73 72 70 
8 0 7 3 0 0 4 80 79 76 71 
9 0 4 5 0 0 3 77 72 70 
8 0 5 8 0 0 2 78 76 
5 0 7 4 0 0 2 77 75 
3 0 8 5 0 0 1 75 
8 0 5 5 0 0 1 75 
7 0 6 5 0 0 2 76 139 
7 0 4 6 0 0 1 81 
2 0 2 8 0 0 1 81 
7 0 10 7 0 0 1 81 
8 0 5 6 0 0 1 81 
10 0 3 3 0 0 1 81 
2 0 3 5 0 0 1 81 
0 0 0 0 0 0 1 162 
0 0 0 0 0 0 5 83 85 86 91 92 
4 1 0 0 0 0 3 90 88 84 
9 4 0 0 0 0 2 89 87 
10 7 0 0 0 0 1 88 
10 4 0 0 0 0 1 87 
5 7 0 0 0 0 1 93 
4 5 0 0 0 0 1 93 
7 1 0 0 0 0 1 93 
5 9 0 0 0 0 1 93 
8 7 0 0 0 0 2 93 111 
6 5 0 0 0 0 1 93 
0 0 0 0 0 0 2 138 150 
0 0 0 0 0 0 11 95 96 97 99 103 104 105 111 112 113 114 
8 1 0 0 1 0 2 107 98 
3 1 0 0 4 0 3 110 108 101 
8 4 0 0 6 0 2 107 100 
5 4 0 0 4 0 3 109 108 102 
6 4 0 0 4 0 2 108 102 
10 6 0 0 7 0 1 101 
8 6 0 0 6 0 1 102 
9 8 0 0 5 0 1 106 
7 7 0 0 2 0 1 107 
10 7 0 0 7 0 1 107 
10 5 0 0 4 0 1 106 
6 4 0 0 8 0 1 115 
2 2 0 0 3 0 1 115 
7 6 0 0 5 0 1 115 
6 7 0 0 3 0 1 115 
1 4 0 0 7 0 1 115 
4 4 0 0 4 0 1 115 
10 8 0 0 4 0 1 115 
7 7 0 0 6 0 1 115 
5 5 0 0 10 0 1 115 
0 0 0 0 0 0 1 162 
0 0 0 0 0 0 6 117 118 119 121 123 124 
8 1 0 0 1 0 3 136 128 120 
8 6 0 0 6 0 3 136 126 122 
1 4 0 0 4 0 4 136 129 128 125 
1 7 0 0 3 0 4 135 131 126 125 
8 5 0 0 8 0 4 135 131 127 126 
3 8 0 0 1 0 5 135 134 133 131 128 
10 5 0 0 5 0 5 135 134 133 131 128 
5 5 0 0 5 0 3 136 128 125 
9 6 0 0 7 0 3 134 133 132 
6 4 0 0 1 0 2 134 130 
2 4 0 0 5 0 2 133 132 
10 7 0 0 6 0 1 130 
9 4 0 0 4 0 1 131 
10 5 0 0 7 0 1 132 
4 6 0 0 7 0 1 132 
2 4 0 0 3 0 1 137 
6 5 0 0 8 0 1 137 
3 5 0 0 7 0 1 137 
6 5 0 0 7 0 1 137 
5 4 0 0 5 0 1 137 
0 0 0 0 0 0 1 162 
0 0 0 0 0 0 4 139 140 142 143 
6 0 0 0 0 1 4 146 145 144 141 
10 0 0 0 0 6 3 148 146 144 
8 0 0 0 0 6 1 147 
8 0 0 0 0 4 1 145 
5 0 0 0 0 7 1 144 
2 0 0 0 0 7 1 149 
8 0 0 0 0 4 1 149 
2 0 0 0 0 5 1 149 
8 0 0 0 0 5 1 149 
7 0 0 0 0 5 1 149 
0 0 0 0 0 0 1 162 
0 0 0 0 0 0 6 151 152 153 155 159 160 
8 0 0 0 1 0 2 157 154 
9 0 0 0 3 0 2 157 154 
7 0 0 0 5 0 2 157 154 
3 0 0 0 8 0 1 156 
4 0 0 0 6 0 1 158 
8 0 0 0 9 0 1 161 
8 0 0 0 4 0 1 161 
10 0 0 0 5 0 1 161 
7 0 0 0 4 0 1 161 
4 0 0 0 5 0 1 161 
0 0 0 0 0 0 1 162 
0 0 0 0 0 0 0 
